************************************************************************
file with basedata            : mm28_.bas
initial value random generator: 1631446312
************************************************************************
projects                      :  1
jobs (incl. supersource/sink ):  12
horizon                       :  86
RESOURCES
  - renewable                 :  2   R
  - nonrenewable              :  2   N
  - doubly constrained        :  0   D
************************************************************************
PROJECT INFORMATION:
pronr.  #jobs rel.date duedate tardcost  MPM-Time
    1     10      0       24        2       24
************************************************************************
PRECEDENCE RELATIONS:
jobnr.    #modes  #successors   successors
   0        1          3           1   2   3
   1        3          1           7
   2        3          3           4   5   7
   3        3          1           6
   4        3          1          10
   5        3          1           6
   6        3          2           8   9
   7        3          3           8   9  10
   8        3          1          11
   9        3          1          11
  10        3          1          11
  11        1          0        
************************************************************************
REQUESTS/DURATIONS:
jobnr. mode duration  R 1  R 2  R 3  R 4  E(W 1)  E(W 2)
------------------------------------------------------------------------
  0      1     0       0    0    0    0     0       0
  1      1     1       7    0    0    2     7       2
  2      1     3       0    7    9    0    21      27
  3      1     5       0    5    0    8    25      40
  4      1     4       0    9    9    0    36      36
  5      1     9       0    7    0    7    63      63
  6      1     4       6    0    4    0    24      16
  7      1     6       5    0    2    0    30      12
  8      1     5       0    9    0    1    45      10
  9      1     8       0    6    0    6    48      48
 10      1     7       4    0    0    4    28      28
 11      1     0       0    0    0    0     0       0
************************************************************************
RESOURCEAVAILABILITIES:
  R 1  R 2
   53   81
************************************************************************
RESOURCE LIMITS:
jobnr.  l(R 1)  u(R 1)  l(R 2)  u(R 2)
------------------------------------------------------------------------
  0        0       0       0       0
  1        4       7       1       2
  2        4       7       5       9
  3        3       5       4       8
  4        5       9       5       9
  5        4       7       4       7
  6        3       6       2       4
  7        3       5       1       2
  8        5       9       1       2
  9        3       6       3       6
 10        2       4       2       4
 11        0       0       0       0
************************************************************************
SCENARIOS:
------------------------------------------------------------------------
RESOURCE k = 1
s = 1: (0, 7, 29, 23, 47, 46, 26, 39, 30, 43, 26, 0)
s = 2: (0, 5, 15, 16, 33, 34, 23, 21, 35, 34, 22, 0)
s = 3: (0, 10, 17, 23, 45, 88, 33, 24, 51, 28, 30, 0)
s = 4: (0, 8, 22, 35, 33, 60, 35, 22, 39, 73, 22, 0)
s = 5: (0, 11, 16, 29, 46, 54, 20, 48, 39, 43, 25, 0)
s = 6: (0, 6, 24, 30, 21, 58, 21, 20, 43, 37, 25, 0)
s = 7: (0, 6, 12, 25, 50, 71, 29, 31, 57, 30, 39, 0)
s = 8: (0, 5, 30, 43, 32, 49, 26, 27, 38, 72, 19, 0)
s = 9: (0, 5, 34, 15, 31, 62, 28, 28, 48, 41, 38, 0)
s = 10: (0, 5, 14, 27, 42, 76, 18, 35, 72, 35, 32, 0)
s = 11: (0, 6, 19, 22, 46, 64, 23, 32, 51, 74, 35, 0)
s = 12: (0, 9, 21, 21, 44, 36, 13, 40, 36, 53, 27, 0)
s = 13: (0, 9, 25, 28, 40, 99, 18, 38, 47, 47, 36, 0)
s = 14: (0, 7, 20, 23, 20, 70, 25, 45, 46, 35, 29, 0)
s = 15: (0, 6, 18, 23, 26, 47, 34, 28, 60, 42, 25, 0)
s = 16: (0, 7, 17, 21, 30, 47, 36, 49, 49, 57, 27, 0)
s = 17: (0, 6, 30, 29, 37, 47, 18, 40, 44, 71, 44, 0)
s = 18: (0, 5, 15, 23, 44, 60, 29, 57, 41, 56, 31, 0)
s = 19: (0, 6, 33, 31, 29, 77, 19, 32, 68, 59, 24, 0)
s = 20: (0, 7, 17, 22, 46, 49, 22, 38, 50, 33, 21, 0)
s = 21: (0, 7, 23, 23, 47, 70, 17, 27, 32, 28, 20, 0)
s = 22: (0, 8, 13, 23, 42, 71, 36, 35, 53, 42, 35, 0)
s = 23: (0, 8, 19, 22, 29, 52, 19, 25, 47, 47, 22, 0)
s = 24: (0, 8, 27, 20, 29, 75, 43, 49, 78, 45, 19, 0)
s = 25: (0, 5, 17, 23, 26, 58, 29, 33, 44, 52, 20, 0)
s = 26: (0, 6, 16, 22, 26, 57, 26, 32, 55, 47, 47, 0)
s = 27: (0, 5, 24, 27, 44, 40, 21, 26, 29, 41, 24, 0)
s = 28: (0, 10, 37, 19, 51, 78, 28, 24, 29, 33, 23, 0)
s = 29: (0, 8, 24, 22, 26, 53, 22, 34, 30, 35, 37, 0)
s = 30: (0, 8, 19, 31, 56, 72, 22, 21, 63, 45, 43, 0)
s = 31: (0, 10, 13, 21, 31, 82, 16, 25, 52, 51, 24, 0)
s = 32: (0, 5, 35, 30, 39, 63, 41, 27, 60, 58, 24, 0)
s = 33: (0, 7, 19, 27, 51, 50, 22, 22, 86, 39, 19, 0)
s = 34: (0, 10, 21, 21, 44, 89, 20, 17, 44, 69, 43, 0)
s = 35: (0, 6, 20, 36, 40, 107, 24, 25, 62, 63, 34, 0)
s = 36: (0, 6, 22, 20, 39, 58, 16, 44, 32, 30, 22, 0)
s = 37: (0, 12, 20, 41, 27, 75, 46, 38, 34, 30, 19, 0)
s = 38: (0, 6, 22, 21, 46, 53, 27, 29, 58, 52, 44, 0)
s = 39: (0, 6, 22, 26, 21, 57, 33, 25, 38, 30, 28, 0)
s = 40: (0, 9, 35, 34, 20, 67, 22, 25, 60, 48, 37, 0)
s = 41: (0, 10, 33, 26, 45, 67, 24, 33, 44, 29, 27, 0)
s = 42: (0, 12, 21, 29, 60, 42, 25, 21, 43, 42, 22, 0)
s = 43: (0, 6, 17, 27, 32, 69, 36, 47, 27, 66, 29, 0)
s = 44: (0, 4, 15, 29, 24, 86, 26, 27, 44, 46, 32, 0)
s = 45: (0, 8, 18, 18, 45, 68, 22, 30, 52, 66, 16, 0)
s = 46: (0, 6, 24, 27, 49, 74, 26, 41, 46, 36, 38, 0)
s = 47: (0, 5, 22, 30, 25, 74, 30, 32, 35, 57, 32, 0)
s = 48: (0, 8, 24, 18, 32, 62, 25, 34, 60, 41, 19, 0)
s = 49: (0, 9, 20, 37, 48, 48, 21, 27, 40, 46, 18, 0)
s = 50: (0, 8, 29, 23, 27, 46, 29, 26, 58, 45, 19, 0)
s = 51: (0, 7, 18, 23, 21, 61, 35, 31, 42, 58, 25, 0)
s = 52: (0, 7, 22, 35, 32, 41, 21, 54, 41, 68, 21, 0)
s = 53: (0, 11, 17, 38, 60, 97, 37, 22, 35, 30, 25, 0)
s = 54: (0, 6, 24, 27, 40, 46, 35, 29, 47, 57, 29, 0)
s = 55: (0, 5, 25, 49, 31, 55, 19, 21, 34, 68, 40, 0)
s = 56: (0, 9, 19, 24, 37, 78, 15, 27, 42, 34, 19, 0)
s = 57: (0, 10, 20, 25, 36, 55, 18, 41, 55, 36, 31, 0)
s = 58: (0, 5, 21, 35, 29, 56, 27, 39, 35, 30, 24, 0)
s = 59: (0, 6, 21, 36, 32, 54, 18, 53, 34, 44, 36, 0)
s = 60: (0, 7, 23, 22, 30, 54, 18, 42, 36, 68, 23, 0)
s = 61: (0, 8, 18, 30, 30, 55, 27, 22, 49, 52, 26, 0)
s = 62: (0, 8, 22, 23, 33, 64, 22, 28, 63, 46, 30, 0)
s = 63: (0, 9, 27, 14, 21, 43, 21, 29, 48, 50, 26, 0)
s = 64: (0, 5, 12, 14, 38, 59, 24, 32, 41, 43, 26, 0)
s = 65: (0, 5, 23, 20, 30, 36, 22, 37, 56, 43, 25, 0)
s = 66: (0, 7, 22, 31, 53, 59, 31, 34, 45, 56, 35, 0)
s = 67: (0, 6, 34, 32, 30, 54, 19, 29, 49, 81, 22, 0)
s = 68: (0, 9, 27, 18, 35, 82, 15, 24, 49, 42, 28, 0)
s = 69: (0, 5, 14, 16, 55, 80, 28, 34, 63, 38, 17, 0)
s = 70: (0, 10, 19, 32, 32, 77, 30, 33, 43, 36, 20, 0)
s = 71: (0, 5, 27, 18, 39, 46, 22, 21, 54, 58, 22, 0)
s = 72: (0, 8, 23, 29, 50, 82, 30, 34, 75, 40, 28, 0)
s = 73: (0, 9, 29, 14, 51, 84, 19, 35, 35, 45, 24, 0)
s = 74: (0, 8, 29, 21, 35, 50, 26, 29, 30, 25, 26, 0)
s = 75: (0, 9, 19, 22, 20, 52, 26, 38, 49, 27, 20, 0)
s = 76: (0, 7, 22, 17, 38, 54, 18, 21, 78, 44, 31, 0)
s = 77: (0, 10, 21, 25, 34, 72, 18, 30, 58, 62, 24, 0)
s = 78: (0, 7, 14, 19, 53, 61, 25, 22, 52, 38, 24, 0)
s = 79: (0, 6, 17, 24, 29, 69, 13, 50, 78, 33, 25, 0)
s = 80: (0, 8, 20, 33, 37, 41, 33, 32, 53, 61, 28, 0)
s = 81: (0, 11, 15, 17, 48, 68, 16, 48, 47, 49, 16, 0)
s = 82: (0, 6, 16, 42, 29, 40, 28, 33, 40, 45, 19, 0)
s = 83: (0, 10, 29, 33, 21, 71, 21, 32, 44, 62, 27, 0)
s = 84: (0, 7, 18, 27, 53, 80, 35, 24, 52, 47, 20, 0)
s = 85: (0, 11, 24, 21, 31, 51, 19, 41, 31, 45, 18, 0)
s = 86: (0, 5, 26, 25, 36, 57, 25, 29, 32, 40, 25, 0)
s = 87: (0, 8, 13, 17, 32, 72, 21, 25, 42, 46, 24, 0)
s = 88: (0, 9, 23, 24, 36, 49, 14, 28, 37, 57, 17, 0)
s = 89: (0, 7, 18, 24, 23, 43, 26, 33, 46, 43, 24, 0)
s = 90: (0, 10, 17, 24, 38, 58, 30, 28, 34, 51, 20, 0)
s = 91: (0, 6, 20, 22, 34, 45, 15, 45, 28, 53, 20, 0)
s = 92: (0, 10, 17, 18, 38, 64, 24, 36, 34, 46, 24, 0)
s = 93: (0, 9, 22, 27, 36, 66, 24, 35, 28, 46, 29, 0)
s = 94: (0, 10, 28, 36, 20, 72, 18, 17, 86, 30, 30, 0)
s = 95: (0, 8, 12, 17, 50, 104, 38, 28, 29, 36, 37, 0)
s = 96: (0, 6, 19, 46, 47, 87, 21, 23, 50, 46, 17, 0)
s = 97: (0, 8, 21, 17, 48, 64, 32, 37, 36, 65, 16, 0)
s = 98: (0, 10, 19, 15, 38, 75, 25, 40, 48, 28, 29, 0)
s = 99: (0, 9, 19, 31, 36, 63, 30, 55, 47, 37, 27, 0)
s = 100: (0, 8, 15, 23, 44, 44, 21, 27, 42, 77, 18, 0)
s = 101: (0, 8, 24, 16, 35, 88, 26, 31, 46, 49, 36, 0)
s = 102: (0, 6, 17, 21, 28, 87, 19, 23, 40, 41, 39, 0)
s = 103: (0, 7, 22, 23, 24, 64, 32, 37, 37, 47, 35, 0)
s = 104: (0, 6, 20, 25, 50, 65, 19, 28, 44, 70, 19, 0)
s = 105: (0, 10, 18, 18, 38, 41, 14, 37, 33, 67, 17, 0)
s = 106: (0, 7, 14, 36, 28, 60, 43, 32, 28, 33, 22, 0)
s = 107: (0, 7, 13, 25, 27, 54, 17, 31, 44, 38, 23, 0)
s = 108: (0, 13, 22, 25, 31, 44, 25, 35, 31, 48, 36, 0)
s = 109: (0, 6, 15, 19, 41, 42, 27, 29, 46, 57, 25, 0)
s = 110: (0, 7, 34, 37, 38, 55, 35, 31, 56, 52, 27, 0)
s = 111: (0, 6, 18, 18, 23, 69, 25, 19, 40, 43, 37, 0)
s = 112: (0, 12, 28, 16, 38, 64, 26, 27, 48, 71, 29, 0)
s = 113: (0, 6, 30, 17, 21, 45, 19, 32, 43, 27, 34, 0)
s = 114: (0, 9, 33, 17, 41, 40, 44, 24, 34, 41, 20, 0)
s = 115: (0, 5, 26, 33, 27, 79, 21, 19, 61, 45, 40, 0)
s = 116: (0, 7, 12, 34, 31, 73, 29, 21, 38, 43, 38, 0)
s = 117: (0, 6, 29, 34, 28, 67, 15, 43, 72, 56, 22, 0)
s = 118: (0, 4, 20, 31, 28, 57, 31, 40, 43, 63, 45, 0)
s = 119: (0, 13, 21, 28, 43, 55, 27, 28, 35, 40, 27, 0)
s = 120: (0, 8, 28, 16, 34, 58, 22, 43, 66, 62, 24, 0)
s = 121: (0, 5, 26, 19, 46, 72, 29, 23, 47, 56, 30, 0)
s = 122: (0, 4, 22, 20, 36, 52, 28, 47, 61, 44, 23, 0)
s = 123: (0, 8, 17, 19, 44, 74, 27, 27, 24, 37, 34, 0)
s = 124: (0, 8, 14, 26, 21, 66, 37, 32, 49, 40, 22, 0)
s = 125: (0, 7, 18, 20, 28, 65, 28, 18, 25, 33, 17, 0)
s = 126: (0, 5, 14, 18, 35, 47, 24, 17, 27, 53, 33, 0)
s = 127: (0, 5, 14, 34, 33, 102, 29, 20, 64, 40, 33, 0)
s = 128: (0, 10, 19, 37, 42, 58, 31, 23, 46, 32, 25, 0)
s = 129: (0, 8, 15, 20, 34, 45, 21, 32, 61, 42, 35, 0)
s = 130: (0, 6, 12, 32, 38, 79, 40, 34, 58, 39, 41, 0)
s = 131: (0, 8, 17, 19, 23, 63, 26, 30, 31, 57, 18, 0)
s = 132: (0, 9, 17, 29, 37, 55, 19, 30, 46, 53, 30, 0)
s = 133: (0, 4, 16, 25, 65, 94, 30, 40, 37, 59, 43, 0)
s = 134: (0, 6, 18, 19, 27, 48, 16, 26, 29, 46, 42, 0)
s = 135: (0, 9, 22, 29, 36, 71, 20, 19, 55, 46, 30, 0)
s = 136: (0, 9, 23, 14, 46, 72, 16, 41, 56, 60, 18, 0)
s = 137: (0, 9, 14, 38, 46, 51, 22, 29, 40, 50, 19, 0)
s = 138: (0, 9, 14, 39, 31, 58, 30, 35, 46, 31, 20, 0)
s = 139: (0, 10, 28, 20, 37, 55, 27, 29, 31, 32, 35, 0)
s = 140: (0, 6, 27, 30, 31, 68, 31, 16, 28, 67, 24, 0)
s = 141: (0, 8, 20, 18, 26, 69, 20, 29, 53, 65, 21, 0)
s = 142: (0, 12, 18, 30, 27, 82, 16, 34, 29, 54, 30, 0)
s = 143: (0, 7, 27, 30, 37, 75, 32, 40, 45, 44, 22, 0)
s = 144: (0, 8, 15, 24, 33, 59, 23, 43, 49, 39, 26, 0)
s = 145: (0, 9, 20, 25, 33, 95, 22, 25, 68, 44, 34, 0)
s = 146: (0, 7, 22, 32, 30, 78, 20, 22, 38, 72, 26, 0)
s = 147: (0, 9, 28, 39, 24, 71, 22, 21, 49, 45, 25, 0)
s = 148: (0, 7, 16, 15, 36, 53, 22, 48, 42, 54, 19, 0)
s = 149: (0, 4, 13, 32, 43, 78, 28, 37, 61, 73, 24, 0)
s = 150: (0, 7, 16, 24, 39, 38, 24, 35, 36, 34, 25, 0)
s = 151: (0, 7, 18, 23, 20, 57, 28, 24, 33, 38, 36, 0)
s = 152: (0, 6, 31, 34, 48, 87, 23, 30, 81, 41, 19, 0)
s = 153: (0, 7, 22, 32, 37, 100, 20, 20, 49, 75, 29, 0)
s = 154: (0, 9, 19, 31, 35, 48, 20, 23, 26, 53, 19, 0)
s = 155: (0, 9, 27, 26, 23, 87, 21, 18, 36, 45, 32, 0)
s = 156: (0, 8, 15, 31, 39, 67, 17, 22, 48, 44, 31, 0)
s = 157: (0, 11, 22, 28, 30, 36, 18, 38, 33, 40, 31, 0)
s = 158: (0, 5, 33, 19, 24, 55, 31, 21, 54, 38, 24, 0)
s = 159: (0, 9, 15, 32, 48, 46, 28, 26, 51, 37, 34, 0)
s = 160: (0, 11, 20, 35, 29, 72, 16, 32, 30, 61, 17, 0)
s = 161: (0, 9, 28, 21, 21, 59, 20, 36, 60, 37, 24, 0)
s = 162: (0, 6, 19, 21, 38, 54, 26, 18, 35, 57, 38, 0)
s = 163: (0, 11, 39, 17, 20, 66, 30, 28, 31, 59, 34, 0)
s = 164: (0, 7, 14, 30, 41, 54, 17, 39, 55, 42, 32, 0)
s = 165: (0, 8, 19, 20, 56, 109, 32, 34, 58, 48, 22, 0)
s = 166: (0, 12, 25, 32, 27, 50, 16, 21, 37, 65, 25, 0)
s = 167: (0, 10, 16, 16, 39, 75, 28, 39, 32, 39, 44, 0)
s = 168: (0, 10, 35, 30, 33, 45, 16, 52, 62, 47, 32, 0)
s = 169: (0, 9, 19, 19, 30, 45, 18, 30, 43, 64, 26, 0)
s = 170: (0, 10, 20, 33, 51, 48, 30, 18, 50, 43, 29, 0)
s = 171: (0, 10, 18, 19, 35, 58, 20, 35, 41, 73, 19, 0)
s = 172: (0, 6, 27, 19, 52, 61, 24, 40, 44, 30, 28, 0)
s = 173: (0, 7, 30, 25, 36, 44, 23, 48, 29, 53, 21, 0)
s = 174: (0, 9, 15, 37, 40, 68, 22, 18, 54, 39, 20, 0)
s = 175: (0, 8, 19, 22, 36, 43, 20, 25, 53, 34, 31, 0)
s = 176: (0, 8, 21, 18, 34, 60, 36, 44, 33, 41, 26, 0)
s = 177: (0, 5, 17, 25, 50, 106, 14, 25, 40, 50, 26, 0)
s = 178: (0, 6, 20, 18, 38, 93, 25, 37, 45, 35, 45, 0)
s = 179: (0, 6, 32, 22, 40, 56, 20, 42, 57, 47, 30, 0)
s = 180: (0, 11, 17, 30, 21, 76, 35, 46, 54, 51, 22, 0)
s = 181: (0, 8, 27, 27, 25, 77, 25, 26, 42, 27, 22, 0)
s = 182: (0, 5, 20, 19, 19, 74, 18, 26, 49, 61, 20, 0)
s = 183: (0, 9, 26, 31, 41, 90, 17, 20, 40, 52, 26, 0)
s = 184: (0, 9, 17, 29, 34, 54, 17, 33, 52, 38, 34, 0)
s = 185: (0, 7, 19, 24, 27, 76, 14, 46, 36, 34, 21, 0)
s = 186: (0, 7, 13, 29, 32, 53, 22, 29, 47, 72, 25, 0)
s = 187: (0, 6, 20, 32, 46, 45, 27, 28, 37, 51, 20, 0)
s = 188: (0, 6, 14, 28, 47, 64, 15, 35, 37, 33, 25, 0)
s = 189: (0, 9, 33, 16, 32, 57, 31, 54, 47, 35, 28, 0)
s = 190: (0, 9, 37, 20, 31, 51, 30, 43, 79, 44, 21, 0)
s = 191: (0, 10, 21, 17, 23, 43, 22, 31, 37, 43, 31, 0)
s = 192: (0, 9, 16, 35, 41, 59, 22, 39, 46, 34, 22, 0)
s = 193: (0, 5, 29, 29, 39, 71, 19, 37, 63, 79, 21, 0)
s = 194: (0, 11, 18, 18, 24, 43, 26, 41, 47, 40, 42, 0)
s = 195: (0, 11, 21, 27, 20, 83, 27, 25, 49, 31, 20, 0)
s = 196: (0, 6, 16, 33, 30, 80, 26, 33, 29, 71, 26, 0)
s = 197: (0, 7, 19, 29, 30, 55, 39, 49, 37, 42, 38, 0)
s = 198: (0, 12, 21, 21, 34, 42, 26, 26, 34, 46, 19, 0)
s = 199: (0, 8, 14, 31, 41, 81, 26, 50, 45, 34, 21, 0)
s = 200: (0, 6, 30, 20, 27, 46, 32, 24, 36, 63, 33, 0)
------------------------------------------------------------------------
RESOURCE k = 2
s = 1: (0, 2, 37, 37, 47, 46, 18, 16, 7, 43, 26, 0)
s = 2: (0, 2, 19, 26, 33, 34, 16, 9, 8, 34, 22, 0)
s = 3: (0, 3, 22, 37, 45, 88, 22, 10, 12, 28, 30, 0)
s = 4: (0, 3, 29, 55, 33, 60, 24, 9, 9, 73, 22, 0)
s = 5: (0, 3, 21, 46, 46, 54, 13, 19, 9, 43, 25, 0)
s = 6: (0, 2, 31, 48, 21, 58, 14, 8, 10, 37, 25, 0)
s = 7: (0, 2, 15, 39, 50, 71, 19, 13, 13, 30, 39, 0)
s = 8: (0, 2, 38, 68, 32, 49, 18, 11, 9, 72, 19, 0)
s = 9: (0, 2, 43, 24, 31, 62, 19, 12, 11, 41, 38, 0)
s = 10: (0, 2, 18, 44, 42, 76, 12, 14, 16, 35, 32, 0)
s = 11: (0, 2, 24, 36, 46, 64, 15, 13, 12, 74, 35, 0)
s = 12: (0, 3, 27, 33, 44, 36, 9, 16, 8, 53, 27, 0)
s = 13: (0, 3, 33, 44, 40, 99, 12, 16, 11, 47, 36, 0)
s = 14: (0, 2, 25, 36, 20, 70, 17, 18, 11, 35, 29, 0)
s = 15: (0, 2, 23, 36, 26, 47, 23, 12, 14, 42, 25, 0)
s = 16: (0, 2, 22, 33, 30, 47, 24, 20, 11, 57, 27, 0)
s = 17: (0, 2, 38, 46, 37, 47, 12, 16, 10, 71, 44, 0)
s = 18: (0, 2, 19, 37, 44, 60, 19, 23, 10, 56, 31, 0)
s = 19: (0, 2, 42, 50, 29, 77, 13, 13, 15, 59, 24, 0)
s = 20: (0, 2, 21, 35, 46, 49, 15, 15, 12, 33, 21, 0)
s = 21: (0, 2, 29, 36, 47, 70, 12, 11, 8, 28, 20, 0)
s = 22: (0, 3, 16, 36, 42, 71, 24, 14, 12, 42, 35, 0)
s = 23: (0, 3, 24, 35, 29, 52, 13, 10, 11, 47, 22, 0)
s = 24: (0, 3, 34, 31, 29, 75, 29, 20, 18, 45, 19, 0)
s = 25: (0, 2, 21, 37, 26, 58, 19, 13, 10, 52, 20, 0)
s = 26: (0, 2, 20, 34, 26, 57, 17, 13, 13, 47, 47, 0)
s = 27: (0, 2, 30, 43, 44, 40, 14, 11, 7, 41, 24, 0)
s = 28: (0, 3, 47, 30, 51, 78, 19, 10, 7, 33, 23, 0)
s = 29: (0, 3, 31, 35, 26, 53, 15, 14, 7, 35, 37, 0)
s = 30: (0, 3, 24, 49, 56, 72, 15, 9, 14, 45, 43, 0)
s = 31: (0, 3, 16, 33, 31, 82, 11, 10, 12, 51, 24, 0)
s = 32: (0, 2, 45, 47, 39, 63, 28, 11, 14, 58, 24, 0)
s = 33: (0, 2, 24, 43, 51, 50, 15, 9, 19, 39, 19, 0)
s = 34: (0, 3, 27, 34, 44, 89, 14, 7, 10, 69, 43, 0)
s = 35: (0, 2, 26, 57, 40, 107, 16, 10, 14, 63, 34, 0)
s = 36: (0, 2, 29, 31, 39, 58, 11, 18, 7, 30, 22, 0)
s = 37: (0, 4, 26, 65, 27, 75, 31, 15, 8, 30, 19, 0)
s = 38: (0, 2, 28, 33, 46, 53, 18, 12, 13, 52, 44, 0)
s = 39: (0, 2, 28, 42, 21, 57, 22, 10, 9, 30, 28, 0)
s = 40: (0, 3, 45, 53, 20, 67, 15, 10, 14, 48, 37, 0)
s = 41: (0, 3, 43, 41, 45, 67, 16, 14, 10, 29, 27, 0)
s = 42: (0, 4, 27, 46, 60, 42, 17, 9, 10, 42, 22, 0)
s = 43: (0, 2, 22, 43, 32, 69, 24, 19, 6, 66, 29, 0)
s = 44: (0, 2, 19, 46, 24, 86, 18, 11, 10, 46, 32, 0)
s = 45: (0, 3, 24, 29, 45, 68, 15, 12, 12, 66, 16, 0)
s = 46: (0, 2, 31, 42, 49, 74, 17, 17, 11, 36, 38, 0)
s = 47: (0, 2, 28, 48, 25, 74, 20, 13, 8, 57, 32, 0)
s = 48: (0, 3, 31, 29, 32, 62, 17, 14, 14, 41, 19, 0)
s = 49: (0, 3, 26, 59, 48, 48, 14, 11, 9, 46, 18, 0)
s = 50: (0, 3, 37, 36, 27, 46, 19, 11, 13, 45, 19, 0)
s = 51: (0, 2, 23, 36, 21, 61, 24, 13, 10, 58, 25, 0)
s = 52: (0, 2, 29, 56, 32, 41, 14, 22, 10, 68, 21, 0)
s = 53: (0, 3, 22, 61, 60, 97, 25, 9, 8, 30, 25, 0)
s = 54: (0, 2, 30, 42, 40, 46, 23, 12, 11, 57, 29, 0)
s = 55: (0, 2, 31, 78, 31, 55, 13, 9, 8, 68, 40, 0)
s = 56: (0, 3, 25, 38, 37, 78, 10, 11, 10, 34, 19, 0)
s = 57: (0, 3, 26, 39, 36, 55, 12, 17, 13, 36, 31, 0)
s = 58: (0, 2, 27, 56, 29, 56, 18, 16, 8, 30, 24, 0)
s = 59: (0, 2, 27, 57, 32, 54, 12, 22, 8, 44, 36, 0)
s = 60: (0, 2, 29, 35, 30, 54, 12, 17, 8, 68, 23, 0)
s = 61: (0, 3, 23, 48, 30, 55, 18, 9, 11, 52, 26, 0)
s = 62: (0, 3, 28, 37, 33, 64, 15, 11, 14, 46, 30, 0)
s = 63: (0, 3, 35, 22, 21, 43, 14, 12, 11, 50, 26, 0)
s = 64: (0, 2, 16, 22, 38, 59, 16, 13, 10, 43, 26, 0)
s = 65: (0, 2, 30, 31, 30, 36, 15, 15, 13, 43, 25, 0)
s = 66: (0, 2, 28, 49, 53, 59, 21, 14, 10, 56, 35, 0)
s = 67: (0, 2, 44, 51, 30, 54, 13, 12, 11, 81, 22, 0)
s = 68: (0, 3, 35, 28, 35, 82, 10, 10, 11, 42, 28, 0)
s = 69: (0, 2, 18, 25, 55, 80, 19, 14, 14, 38, 17, 0)
s = 70: (0, 3, 25, 50, 32, 77, 20, 14, 10, 36, 20, 0)
s = 71: (0, 2, 35, 29, 39, 46, 15, 9, 12, 58, 22, 0)
s = 72: (0, 3, 30, 46, 50, 82, 20, 14, 17, 40, 28, 0)
s = 73: (0, 3, 38, 23, 51, 84, 13, 14, 8, 45, 24, 0)
s = 74: (0, 3, 37, 34, 35, 50, 18, 12, 7, 25, 26, 0)
s = 75: (0, 3, 24, 35, 20, 52, 17, 15, 11, 27, 20, 0)
s = 76: (0, 2, 28, 27, 38, 54, 12, 9, 18, 44, 31, 0)
s = 77: (0, 3, 26, 40, 34, 72, 12, 12, 13, 62, 24, 0)
s = 78: (0, 2, 18, 29, 53, 61, 17, 9, 12, 38, 24, 0)
s = 79: (0, 2, 22, 39, 29, 69, 9, 20, 18, 33, 25, 0)
s = 80: (0, 3, 26, 52, 37, 41, 22, 13, 12, 61, 28, 0)
s = 81: (0, 3, 19, 28, 48, 68, 11, 20, 11, 49, 16, 0)
s = 82: (0, 2, 21, 67, 29, 40, 19, 13, 9, 45, 19, 0)
s = 83: (0, 3, 37, 52, 21, 71, 14, 13, 10, 62, 27, 0)
s = 84: (0, 2, 23, 43, 53, 80, 24, 10, 12, 47, 20, 0)
s = 85: (0, 3, 31, 34, 31, 51, 13, 17, 7, 45, 18, 0)
s = 86: (0, 2, 33, 40, 36, 57, 17, 12, 8, 40, 25, 0)
s = 87: (0, 3, 16, 27, 32, 72, 14, 10, 10, 46, 24, 0)
s = 88: (0, 3, 30, 39, 36, 49, 10, 12, 9, 57, 17, 0)
s = 89: (0, 2, 23, 39, 23, 43, 17, 14, 11, 43, 24, 0)
s = 90: (0, 3, 22, 38, 38, 58, 20, 11, 8, 51, 20, 0)
s = 91: (0, 2, 25, 36, 34, 45, 10, 18, 7, 53, 20, 0)
s = 92: (0, 3, 22, 28, 38, 64, 16, 15, 8, 46, 24, 0)
s = 93: (0, 3, 28, 43, 36, 66, 16, 14, 7, 46, 29, 0)
s = 94: (0, 3, 36, 57, 20, 72, 12, 7, 20, 30, 30, 0)
s = 95: (0, 3, 16, 27, 50, 104, 25, 12, 7, 36, 37, 0)
s = 96: (0, 2, 25, 74, 47, 87, 14, 9, 11, 46, 17, 0)
s = 97: (0, 3, 27, 27, 48, 64, 22, 15, 8, 65, 16, 0)
s = 98: (0, 3, 24, 24, 38, 75, 17, 16, 11, 28, 29, 0)
s = 99: (0, 3, 24, 49, 36, 63, 20, 22, 11, 37, 27, 0)
s = 100: (0, 3, 19, 36, 44, 44, 14, 11, 10, 77, 18, 0)
s = 101: (0, 3, 31, 26, 35, 88, 17, 13, 11, 49, 36, 0)
s = 102: (0, 2, 22, 34, 28, 87, 13, 10, 9, 41, 39, 0)
s = 103: (0, 2, 28, 36, 24, 64, 22, 15, 9, 47, 35, 0)
s = 104: (0, 2, 26, 40, 50, 65, 13, 12, 10, 70, 19, 0)
s = 105: (0, 3, 23, 29, 38, 41, 10, 15, 8, 67, 17, 0)
s = 106: (0, 2, 18, 57, 28, 60, 29, 13, 7, 33, 22, 0)
s = 107: (0, 2, 17, 40, 27, 54, 12, 13, 10, 38, 23, 0)
s = 108: (0, 4, 28, 40, 31, 44, 17, 14, 7, 48, 36, 0)
s = 109: (0, 2, 19, 30, 41, 42, 18, 12, 11, 57, 25, 0)
s = 110: (0, 2, 44, 59, 38, 55, 24, 13, 13, 52, 27, 0)
s = 111: (0, 2, 23, 28, 23, 69, 17, 8, 9, 43, 37, 0)
s = 112: (0, 4, 36, 26, 38, 64, 17, 11, 11, 71, 29, 0)
s = 113: (0, 2, 38, 27, 21, 45, 13, 13, 10, 27, 34, 0)
s = 114: (0, 3, 42, 26, 41, 40, 29, 10, 8, 41, 20, 0)
s = 115: (0, 2, 34, 53, 27, 79, 14, 8, 14, 45, 40, 0)
s = 116: (0, 2, 16, 55, 31, 73, 20, 9, 9, 43, 38, 0)
s = 117: (0, 2, 37, 55, 28, 67, 10, 18, 16, 56, 22, 0)
s = 118: (0, 2, 26, 49, 28, 57, 21, 16, 10, 63, 45, 0)
s = 119: (0, 4, 27, 45, 43, 55, 18, 12, 8, 40, 27, 0)
s = 120: (0, 3, 36, 25, 34, 58, 15, 17, 15, 62, 24, 0)
s = 121: (0, 2, 33, 30, 46, 72, 20, 10, 11, 56, 30, 0)
s = 122: (0, 2, 28, 32, 36, 52, 19, 19, 14, 44, 23, 0)
s = 123: (0, 3, 22, 30, 44, 74, 18, 11, 6, 37, 34, 0)
s = 124: (0, 3, 18, 41, 21, 66, 25, 13, 11, 40, 22, 0)
s = 125: (0, 2, 23, 32, 28, 65, 19, 8, 6, 33, 17, 0)
s = 126: (0, 2, 18, 29, 35, 47, 16, 7, 6, 53, 33, 0)
s = 127: (0, 2, 18, 55, 33, 102, 19, 8, 15, 40, 33, 0)
s = 128: (0, 3, 24, 58, 42, 58, 21, 10, 11, 32, 25, 0)
s = 129: (0, 3, 19, 31, 34, 45, 14, 13, 14, 42, 35, 0)
s = 130: (0, 2, 15, 51, 38, 79, 27, 14, 13, 39, 41, 0)
s = 131: (0, 3, 21, 30, 23, 63, 18, 12, 7, 57, 18, 0)
s = 132: (0, 3, 22, 47, 37, 55, 13, 12, 11, 53, 30, 0)
s = 133: (0, 2, 20, 40, 65, 94, 20, 16, 9, 59, 43, 0)
s = 134: (0, 2, 22, 29, 27, 48, 11, 11, 7, 46, 42, 0)
s = 135: (0, 3, 28, 46, 36, 71, 13, 8, 13, 46, 30, 0)
s = 136: (0, 3, 29, 22, 46, 72, 11, 17, 13, 60, 18, 0)
s = 137: (0, 3, 18, 61, 46, 51, 15, 12, 9, 50, 19, 0)
s = 138: (0, 3, 17, 62, 31, 58, 20, 14, 11, 31, 20, 0)
s = 139: (0, 3, 36, 32, 37, 55, 18, 12, 7, 32, 35, 0)
s = 140: (0, 2, 35, 47, 31, 68, 21, 7, 7, 67, 24, 0)
s = 141: (0, 3, 25, 28, 26, 69, 14, 12, 12, 65, 21, 0)
s = 142: (0, 4, 23, 47, 27, 82, 11, 14, 7, 54, 30, 0)
s = 143: (0, 2, 35, 48, 37, 75, 21, 16, 10, 44, 22, 0)
s = 144: (0, 3, 19, 38, 33, 59, 16, 18, 11, 39, 26, 0)
s = 145: (0, 3, 25, 40, 33, 95, 15, 10, 15, 44, 34, 0)
s = 146: (0, 2, 29, 50, 30, 78, 13, 9, 9, 72, 26, 0)
s = 147: (0, 3, 36, 63, 24, 71, 15, 9, 11, 45, 25, 0)
s = 148: (0, 2, 20, 23, 36, 53, 15, 19, 10, 54, 19, 0)
s = 149: (0, 2, 17, 52, 43, 78, 19, 15, 14, 73, 24, 0)
s = 150: (0, 2, 20, 39, 39, 38, 16, 14, 8, 34, 25, 0)
s = 151: (0, 2, 23, 37, 20, 57, 19, 10, 8, 38, 36, 0)
s = 152: (0, 2, 40, 55, 48, 87, 16, 12, 18, 41, 19, 0)
s = 153: (0, 2, 28, 52, 37, 100, 13, 8, 11, 75, 29, 0)
s = 154: (0, 3, 24, 49, 35, 48, 14, 10, 6, 53, 19, 0)
s = 155: (0, 3, 35, 41, 23, 87, 14, 8, 8, 45, 32, 0)
s = 156: (0, 3, 19, 50, 39, 67, 11, 9, 11, 44, 31, 0)
s = 157: (0, 3, 28, 45, 30, 36, 12, 16, 8, 40, 31, 0)
s = 158: (0, 2, 43, 30, 24, 55, 21, 9, 12, 38, 24, 0)
s = 159: (0, 3, 20, 52, 48, 46, 19, 11, 12, 37, 34, 0)
s = 160: (0, 3, 25, 56, 29, 72, 11, 13, 7, 61, 17, 0)
s = 161: (0, 3, 36, 34, 21, 59, 13, 15, 14, 37, 24, 0)
s = 162: (0, 2, 24, 33, 38, 54, 18, 7, 8, 57, 38, 0)
s = 163: (0, 4, 50, 27, 20, 66, 20, 11, 7, 59, 34, 0)
s = 164: (0, 2, 18, 48, 41, 54, 12, 16, 13, 42, 32, 0)
s = 165: (0, 3, 25, 31, 56, 109, 22, 14, 13, 48, 22, 0)
s = 166: (0, 4, 32, 51, 27, 50, 11, 9, 9, 65, 25, 0)
s = 167: (0, 3, 20, 26, 39, 75, 19, 16, 7, 39, 44, 0)
s = 168: (0, 3, 44, 48, 33, 45, 11, 21, 14, 47, 32, 0)
s = 169: (0, 3, 24, 29, 30, 45, 12, 12, 10, 64, 26, 0)
s = 170: (0, 3, 25, 52, 51, 48, 20, 8, 12, 43, 29, 0)
s = 171: (0, 3, 23, 31, 35, 58, 13, 14, 10, 73, 19, 0)
s = 172: (0, 2, 35, 30, 52, 61, 16, 16, 10, 30, 28, 0)
s = 173: (0, 2, 38, 40, 36, 44, 15, 19, 7, 53, 21, 0)
s = 174: (0, 3, 19, 59, 40, 68, 15, 8, 12, 39, 20, 0)
s = 175: (0, 3, 25, 34, 36, 43, 14, 10, 12, 34, 31, 0)
s = 176: (0, 3, 27, 28, 34, 60, 24, 18, 8, 41, 26, 0)
s = 177: (0, 2, 22, 40, 50, 106, 10, 10, 9, 50, 26, 0)
s = 178: (0, 2, 25, 29, 38, 93, 17, 15, 10, 35, 45, 0)
s = 179: (0, 2, 41, 35, 40, 56, 13, 17, 13, 47, 30, 0)
s = 180: (0, 4, 21, 47, 21, 76, 23, 19, 12, 51, 22, 0)
s = 181: (0, 3, 34, 43, 25, 77, 17, 11, 10, 27, 22, 0)
s = 182: (0, 2, 26, 30, 19, 74, 12, 11, 11, 61, 20, 0)
s = 183: (0, 3, 33, 50, 41, 90, 12, 8, 9, 52, 26, 0)
s = 184: (0, 3, 22, 46, 34, 54, 11, 13, 12, 38, 34, 0)
s = 185: (0, 2, 24, 37, 27, 76, 10, 19, 8, 34, 21, 0)
s = 186: (0, 2, 17, 47, 32, 53, 15, 12, 11, 72, 25, 0)
s = 187: (0, 2, 26, 52, 46, 45, 18, 11, 9, 51, 20, 0)
s = 188: (0, 2, 18, 44, 47, 64, 10, 14, 9, 33, 25, 0)
s = 189: (0, 3, 42, 25, 32, 57, 21, 22, 11, 35, 28, 0)
s = 190: (0, 3, 47, 32, 31, 51, 20, 17, 18, 44, 21, 0)
s = 191: (0, 3, 27, 27, 23, 43, 15, 13, 9, 43, 31, 0)
s = 192: (0, 3, 20, 55, 41, 59, 15, 16, 11, 34, 22, 0)
s = 193: (0, 2, 38, 46, 39, 71, 13, 15, 14, 79, 21, 0)
s = 194: (0, 3, 24, 29, 24, 43, 17, 17, 11, 40, 42, 0)
s = 195: (0, 3, 27, 42, 20, 83, 18, 10, 11, 31, 20, 0)
s = 196: (0, 2, 20, 53, 30, 80, 18, 13, 7, 71, 26, 0)
s = 197: (0, 2, 25, 46, 30, 55, 26, 20, 9, 42, 38, 0)
s = 198: (0, 4, 26, 33, 34, 42, 17, 11, 8, 46, 19, 0)
s = 199: (0, 3, 18, 49, 41, 81, 17, 20, 10, 34, 21, 0)
s = 200: (0, 2, 38, 31, 27, 46, 22, 10, 8, 63, 33, 0)
************************************************************************
ES/LS-VALUES:
jobnr.   ES(i)    LS(i)
------------------------------------------------------------------------
  0        0        0
  1        0       58
  2        0       42
  3        0       54
  4        5       66
  5        5       48
  6       20       64
  7        5       60
  8       27       76
  9       27       72
 10       16       74
 11       40       86
************************************************************************
BIG-M-VALUES:
M1 = 56, M2 = 218
************************************************************************
